unsat
(:cnf-encoding-aux-vars 89
 :elim-unconstrained    4
 :max-memory            19.14
 :memory                18.71
 :nlsat-arith-var       13
 :nlsat-atoms           162
 :nlsat-bool-var        105
 :nlsat-clauses         475
 :nlsat-conflicts       7
 :nlsat-decisions       8
 :nlsat-propagations    33
 :num-allocs            219509
 :rlimit-count          50652
 :solve-eqs-elim-vars   75
 :solve-eqs-steps       248
 :time                  0.02
 :total-time            0.03)
